56 55 53 84 51 50 52 54 49 48 47 46 45 44 43 42 39 41 40 38 37 36 35 33 34 558 559 550 551 552 557 556 555 91 92 85 86 87 90 89 93 94 95 96 97 554 553 98 99 100 101 102 103 104 105 106 118 117 116 115 114 113 161 112 111 110 109 108 107 542 541 543 544 547 546 545 548 549 560 561 562 563 564 565 566 567 21 24 25 26 27 28 29 30 32 31 22 23 12 13 14 15 16 11 10 9 3 2 1 4 0 5 573 572 6 7 8 17 18 19 20 568 569 570 571 460 459 458 457 456 455 454 439 443 444 445 442 446 447 448 449 440 441 450 451 311 312 313 310 309 308 505 504 503 502 501 500 499 453 452 461 462 463 464 466 467 468 469 470 465 496 497 498 519 518 520 494 495 471 472 473 474 475 476 477 478 479 480 481 482 483 485 484 536 537 539 538 540 187 188 186 182 178 177 176 174 173 172 175 171 170 169 180 179 181 183 185 184 197 196 195 194 193 192 191 190 226 225 189 227 228 229 230 231 532 533 488 534 535 487 486 489 531 530 529 528 490 491 492 493 524 525 526 523 521 522 517 516 515 514 513 527 512 511 510 509 506 507 508 302 301 303 304 307 305 306 318 317 319 320 321 316 314 315 377 378 380 381 379 376 375 374 373 372 370 369 368 367 365 364 363 362 361 360 399 400 404 405 406 408 407 397 398 371 396 395 394 393 391 392 390 389 388 387 386 382 431 433 434 435 436 438 437 432 430 429 428 427 426 425 424 423 422 421 420 419 417 418 410 384 383 385 409 403 401 402 356 412 411 413 414 416 415 352 353 354 355 357 359 358 351 350 349 348 347 346 345 344 343 342 366 327 323 322 324 325 326 328 329 330 331 332 340 341 339 338 337 336 333 335 334 283 284 285 286 287 280 281 282 279 278 277 276 288 289 290 275 274 273 272 269 292 291 295 296 294 293 270 268 271 267 297 298 299 265 266 264 263 262 261 260 259 258 300 257 256 255 253 254 252 251 250 249 248 241 242 243 244 245 247 246 238 239 240 237 236 235 234 233 232 219 218 220 221 222 224 223 217 216 215 214 213 212 211 210 209 208 207 206 205 198 199 200 201 202 204 203 165 164 166 167 163 168 162 160 159 156 155 154 153 157 158 145 146 147 148 152 149 150 151 142 143 144 141 140 136 135 134 133 132 131 130 129 137 139 138 128 127 126 125 124 69 68 70 71 123 122 121 120 119 73 72 65 66 67 64 76 75 74 77 88 78 62 63 60 61 79 80 81 59 58 57 82 83